//Dat File

outFile="MPVSBPP_SET1_IT200_ITV2_NT1_TS3_WT1_VT1_REP4";
m=200;
o=42;
p=3;
numVTypes=1;

demand = [4, 7, 7, 9, 3, 10, 10, 7, 2, 1, 2, 5, 7, 3, 7, 2, 7, 10, 5, 11, 1, 9, 10, 8, 4, 9, 3, 4, 9, 2, 6, 3, 3, 5, 5, 3, 4, 2, 8, 9, 7, 6, 6, 9, 3, 9, 5, 7, 5, 9, 11, 5, 4, 5, 10, 11, 7, 6, 2, 1, 8, 5, 9, 2, 11, 3, 9, 7, 5, 5, 5, 9, 2, 8, 5, 5, 5, 6, 7, 8, 3, 2, 9, 9, 10, 4, 3, 6, 8, 5, 1, 5, 9, 5, 2, 11, 2, 5, 10, 6, 17, 15, 18, 12, 15, 14, 12, 14, 15, 17, 19, 18, 19, 12, 14, 15, 16, 16, 19, 16, 12, 14, 12, 13, 16, 14, 12, 13, 12, 15, 16, 16, 19, 13, 14, 13, 14, 13, 15, 16, 17, 17, 18, 19, 19, 15, 13, 12, 13, 13, 16, 15, 13, 13, 19, 17, 14, 13, 13, 14, 13, 12, 16, 16, 19, 12, 14, 17, 14, 19, 16, 19, 12, 14, 18, 17, 12, 17, 12, 12, 18, 16, 12, 18, 18, 19, 13, 14, 15, 18, 16, 13, 19, 17, 16, 16, 16, 18, 17, 15];
Depot_Cap = [30000, 30000, 30000];
Tarif = [10, 3, 7];
VeicVolume = [100];
VeicCost = [100];
VeicType = [1, 1, 1, 1, 1, 1, 1, 1, 1, 1, 1, 1, 1, 1, 1, 1, 1, 1, 1, 1, 1, 1, 1, 1, 1, 1, 1, 1, 1, 1, 1, 1, 1, 1, 1, 1, 1, 1, 1, 1, 1, 1];
Elect_vehicle = [[70, 100, 30], [70, 100, 30], [70, 100, 30], [70, 100, 30], [70, 100, 30], [70, 100, 30], [70, 100, 30], [70, 100, 30], [70, 100, 30], [70, 100, 30], [70, 100, 30], [70, 100, 30], [70, 100, 30], [70, 100, 30], [70, 100, 30], [70, 100, 30], [70, 100, 30], [70, 100, 30], [70, 100, 30], [70, 100, 30], [70, 100, 30], [70, 100, 30], [70, 100, 30], [70, 100, 30], [70, 100, 30], [70, 100, 30], [70, 100, 30], [70, 100, 30], [70, 100, 30], [70, 100, 30], [70, 100, 30], [70, 100, 30], [70, 100, 30], [70, 100, 30], [70, 100, 30], [70, 100, 30], [70, 100, 30], [70, 100, 30], [70, 100, 30], [70, 100, 30], [70, 100, 30], [70, 100, 30]];